p wcnf 10 51 193
193 1 2 0
193 1 3 0
193 1 4 0
193 1 5 0
193 1 6 0
193 1 7 0
193 1 9 0
193 1 10 0
193 2 3 0
193 2 4 0
193 2 5 0
193 2 6 0
193 2 7 0
193 2 8 0
193 2 9 0
193 2 10 0
193 3 4 0
193 3 5 0
193 3 6 0
193 3 7 0
193 3 8 0
193 3 10 0
193 4 5 0
193 4 6 0
193 4 7 0
193 4 8 0
193 4 9 0
193 4 10 0
193 5 6 0
193 5 7 0
193 5 8 0
193 5 10 0
193 6 7 0
193 6 8 0
193 6 10 0
193 7 8 0
193 7 9 0
193 7 10 0
193 8 9 0
193 8 10 0
193 9 10 0
3 -1 0
2 -2 0
3 -3 0
2 -4 0
3 -5 0
3 -6 0
2 -7 0
3 -8 0
5 -9 0
2 -10 0
